(set-logic QF_LIA)
(declare-fun x0 () Int)
(declare-fun x1 () Int)
(declare-fun x2 () Int)
(declare-fun x3 () Int)
(declare-fun x4 () Int)
(declare-fun x5 () Int)
(declare-fun x6 () Int)
(declare-fun x7 () Int)
(declare-fun x8 () Int)
(declare-fun x9 () Int)
(declare-fun A0 () Bool)
(declare-fun A1 () Bool)
(declare-fun A2 () Bool)
(declare-fun A3 () Bool)
(declare-fun A4 () Bool)
(declare-fun A5 () Bool)
(declare-fun A6 () Bool)
(declare-fun A7 () Bool)
(declare-fun A8 () Bool)
(declare-fun A9 () Bool)
(assert (let ((.def_0 (* (- 1) x8))) (let ((.def_1 (* (- 1) x9))) (let ((.def_2 (+ .def_1 .def_0))) (let ((.def_3 (< .def_2 (- 1)))) (let ((.def_4 (not A7))) (let ((.def_5 (= .def_4 .def_3))) (let ((.def_6 (not .def_5))) (let ((.def_7 (not A3))) (let ((.def_8 (or .def_7 A7))) (let ((.def_9 (or .def_8 .def_6))) (let ((.def_10 (not .def_9))) (let ((.def_11 (* (- 1) x0))) (let ((.def_12 (< .def_11 (- 1)))) (let ((.def_13 (not .def_12))) (let ((.def_14 (* 1 x0))) (let ((.def_15 (< .def_14 1))) (let ((.def_16 (or .def_15 .def_13))) (let ((.def_17 (not .def_16))) (let ((.def_18 (* (- 1) x7))) (let ((.def_19 (* 1 x6))) (let ((.def_20 (+ .def_19 .def_18))) (let ((.def_21 (< .def_20 (- 1)))) (let ((.def_22 (not .def_21))) (let ((.def_23 (not A0))) (let ((.def_24 (or .def_23 .def_22))) (let ((.def_25 (and .def_24 .def_17))) (let ((.def_26 (or .def_25 .def_10))) (let ((.def_27 (not .def_26))) (let ((.def_28 (* 1 x3))) (let ((.def_29 (* 1 x1))) (let ((.def_30 (+ .def_29 .def_28))) (let ((.def_31 (< .def_30 1))) (let ((.def_32 (not .def_31))) (let ((.def_33 (not A9))) (let ((.def_34 (and .def_33 .def_32))) (let ((.def_35 (not .def_34))) (let ((.def_36 (or .def_33 A9))) (let ((.def_37 (or .def_36 .def_35))) (let ((.def_38 (+ .def_29 .def_0))) (let ((.def_39 (< .def_38 1))) (let ((.def_40 (and .def_39 A7))) (let ((.def_41 (not .def_40))) (let ((.def_42 (* 1 x5))) (let ((.def_43 (+ .def_42 .def_28))) (let ((.def_44 (< .def_43 1))) (let ((.def_45 (< .def_14 (- 1)))) (let ((.def_46 (or .def_45 .def_44))) (let ((.def_47 (or .def_46 .def_41))) (let ((.def_48 (not .def_47))) (let ((.def_49 (= .def_48 .def_37))) (let ((.def_50 (not .def_49))) (let ((.def_51 (or .def_50 .def_27))) (let ((.def_52 (* (- 1) x6))) (let ((.def_53 (+ .def_52 .def_0))) (let ((.def_54 (< .def_53 1))) (let ((.def_55 (not .def_54))) (let ((.def_56 (* 1 x7))) (let ((.def_57 (+ .def_42 .def_56))) (let ((.def_58 (< .def_57 (- 1)))) (let ((.def_59 (not .def_58))) (let ((.def_60 (and .def_59 .def_55))) (let ((.def_61 (not A8))) (let ((.def_62 (and .def_61 A0))) (let ((.def_63 (not .def_62))) (let ((.def_64 (and .def_63 .def_60))) (let ((.def_65 (not .def_64))) (let ((.def_66 (* (- 1) x2))) (let ((.def_67 (+ .def_52 .def_66))) (let ((.def_68 (< .def_67 (- 1)))) (let ((.def_69 (= A8 .def_68))) (let ((.def_70 (not .def_69))) (let ((.def_71 (not A6))) (let ((.def_72 (and .def_4 .def_71))) (let ((.def_73 (or .def_72 .def_70))) (let ((.def_74 (not .def_73))) (let ((.def_75 (and .def_74 .def_65))) (let ((.def_76 (or .def_7 A8))) (let ((.def_77 (not A5))) (let ((.def_78 (or .def_77 A2))) (let ((.def_79 (and .def_78 .def_76))) (let ((.def_80 (not .def_79))) (let ((.def_81 (* 1 x9))) (let ((.def_82 (+ .def_0 .def_81))) (let ((.def_83 (< .def_82 1))) (let ((.def_84 (not .def_83))) (let ((.def_85 (* (- 1) x1))) (let ((.def_86 (< .def_85 1))) (let ((.def_87 (and .def_86 .def_84))) (let ((.def_88 (not .def_87))) (let ((.def_89 (* (- 1) x3))) (let ((.def_90 (< .def_89 (- 1)))) (let ((.def_91 (not .def_90))) (let ((.def_92 (and .def_91 .def_77))) (let ((.def_93 (or .def_92 .def_88))) (let ((.def_94 (and .def_93 .def_80))) (let ((.def_95 (and .def_94 .def_75))) (let ((.def_96 (and .def_95 .def_51))) (let ((.def_97 (not .def_96))) (let ((.def_98 (< .def_28 (- 1)))) (let ((.def_99 (not .def_98))) (let ((.def_100 (and .def_99 A1))) (let ((.def_101 (* 1 x2))) (let ((.def_102 (+ .def_101 .def_0))) (let ((.def_103 (< .def_102 1))) (let ((.def_104 (and A1 .def_103))) (let ((.def_105 (not .def_104))) (let ((.def_106 (and .def_105 .def_100))) (let ((.def_107 (< .def_102 (- 1)))) (let ((.def_108 (or A6 .def_107))) (let ((.def_109 (not A4))) (let ((.def_110 (or .def_109 A3))) (let ((.def_111 (or .def_110 .def_108))) (let ((.def_112 (or .def_111 .def_106))) (let ((.def_113 (not .def_112))) (let ((.def_114 (not A1))) (let ((.def_115 (or .def_114 A0))) (let ((.def_116 (* (- 1) x4))) (let ((.def_117 (< .def_116 (- 1)))) (let ((.def_118 (not .def_117))) (let ((.def_119 (or .def_118 .def_71))) (let ((.def_120 (and .def_119 .def_115))) (let ((.def_121 (not .def_120))) (let ((.def_122 (< .def_81 (- 1)))) (let ((.def_123 (not .def_122))) (let ((.def_124 (or .def_114 .def_123))) (let ((.def_125 (not A2))) (let ((.def_126 (or .def_125 .def_23))) (let ((.def_127 (or .def_126 .def_124))) (let ((.def_128 (or .def_127 .def_121))) (let ((.def_129 (or .def_128 .def_113))) (let ((.def_130 (not .def_129))) (let ((.def_131 (+ .def_29 .def_42))) (let ((.def_132 (< .def_131 1))) (let ((.def_133 (not .def_132))) (let ((.def_134 (or .def_99 .def_133))) (let ((.def_135 (< .def_42 (- 1)))) (let ((.def_136 (not .def_135))) (let ((.def_137 (or .def_136 A1))) (let ((.def_138 (not .def_137))) (let ((.def_139 (or .def_138 .def_134))) (let ((.def_140 (or A3 A4))) (let ((.def_141 (+ .def_66 .def_11))) (let ((.def_142 (< .def_141 (- 1)))) (let ((.def_143 (not .def_142))) (let ((.def_144 (< .def_101 1))) (let ((.def_145 (not .def_144))) (let ((.def_146 (or .def_145 .def_143))) (let ((.def_147 (or .def_146 .def_140))) (let ((.def_148 (not .def_147))) (let ((.def_149 (or .def_148 .def_139))) (let ((.def_150 (not .def_149))) (let ((.def_151 (and A9 .def_114))) (let ((.def_152 (not .def_151))) (let ((.def_153 (+ .def_1 .def_19))) (let ((.def_154 (< .def_153 1))) (let ((.def_155 (not .def_154))) (let ((.def_156 (and A3 .def_155))) (let ((.def_157 (and .def_156 .def_152))) (let ((.def_158 (< .def_81 1))) (let ((.def_159 (not .def_158))) (let ((.def_160 (< .def_0 1))) (let ((.def_161 (or .def_160 .def_159))) (let ((.def_162 (< .def_101 (- 1)))) (let ((.def_163 (and .def_162 A9))) (let ((.def_164 (and .def_163 .def_161))) (let ((.def_165 (not .def_164))) (let ((.def_166 (or .def_165 .def_157))) (let ((.def_167 (and .def_166 .def_150))) (let ((.def_168 (not .def_167))) (let ((.def_169 (or .def_168 .def_130))) (let ((.def_170 (and .def_169 .def_97))) (let ((.def_171 (not .def_170))) (let ((.def_172 (<= x9 1))) (let ((.def_173 (<= 0 x9))) (let ((.def_174 (<= x8 1))) (let ((.def_175 (<= 0 x8))) (let ((.def_176 (<= x7 1))) (let ((.def_177 (<= 0 x7))) (let ((.def_178 (<= x6 1))) (let ((.def_179 (<= 0 x6))) (let ((.def_180 (<= x5 1))) (let ((.def_181 (<= 0 x5))) (let ((.def_182 (<= x4 1))) (let ((.def_183 (<= 0 x4))) (let ((.def_184 (<= x3 1))) (let ((.def_185 (<= 0 x3))) (let ((.def_186 (<= x2 1))) (let ((.def_187 (<= 0 x2))) (let ((.def_188 (<= x1 1))) (let ((.def_189 (<= 0 x1))) (let ((.def_190 (<= x0 1))) (let ((.def_191 (<= 0 x0))) (let ((.def_192 (and .def_191 .def_190 .def_189 .def_188 .def_187 .def_186 .def_185 .def_184 .def_183 .def_182 .def_181 .def_180 .def_179 .def_178 .def_177 .def_176 .def_175 .def_174 .def_173 .def_172 .def_171))) .def_192))))))))))))))))))))))))))))))))))))))))))))))))))))))))))))))))))))))))))))))))))))))))))))))))))))))))))))))))))))))))))))))))))))))))))))))))))))))))))))))))))))))))))))))))))))))))))))))))))
(check-sat)
